100
128
20
15
2
22
21
20
47
6
4
4
54
28
50
57
38
7
51
38
45
58
13
27
5
54
36
54
23
28
33
10
3
37
32
46
23
32
27
51
3
33
26
40
4
47
42
9
43
1
52
2
46
5
56
26
36
51
42
52
48
40
53
21
54
54
37
56
52
20
54
20
3
53
1
2
55
41
62
61
4
20
24
46
4
37
21
38
31
28
46
31
31
35
5
7
30
41
4
56
1
3